Total weight: 1301.8645956464018
Route 1: 0 27 45 37 98 85 61 5 60 83 18 69 1 50 76 12 26 87 42 14 92 93 17 86 16 91 100 58 0 
Route 2: 0 33 51 32 90 63 64 11 62 10 78 79 84 8 46 47 19 49 36 74 75 4 68 24 29 35 77 80 54 53 0 
Route 3: 0 44 38 43 15 23 67 41 22 40 81 9 66 39 56 55 25 0 
Route 4: 0 28 3 34 65 71 20 30 88 70 31 7 48 82 52 0 
Route 5: 0 89 6 99 96 59 97 95 94 13 57 2 73 72 21 0 
